784 1568
1 2 4
1 29 3
2 3 1
2 30 2
3 4 4
3 31 5
4 5 3
4 32 1
5 6 3
5 33 4
6 7 3
6 34 2
7 8 5
7 35 3
8 9 3
8 36 2
9 10 1
9 37 5
10 11 2
10 38 5
11 12 2
11 39 2
12 13 4
12 40 3
13 14 2
13 41 3
14 15 3
14 42 1
15 16 2
15 43 5
16 17 4
16 44 4
17 18 1
17 45 1
18 19 5
18 46 2
19 20 4
19 47 5
20 21 2
20 48 1
21 22 2
21 49 1
22 23 5
22 50 5
23 24 1
23 51 4
24 25 1
24 52 1
25 26 2
25 53 3
26 27 5
26 54 1
27 28 1
27 55 3
28 56 1
29 30 5
29 57 5
30 31 5
30 58 1
31 32 2
31 59 5
32 33 1
32 60 5
33 34 1
33 61 5
34 35 3
34 62 2
35 36 2
35 63 5
36 37 4
36 64 5
37 38 1
37 65 3
38 39 2
38 66 2
39 40 3
39 67 5
40 41 1
40 68 5
41 42 3
41 69 2
42 43 5
42 70 4
43 44 5
43 71 1
44 45 3
44 72 2
45 46 3
45 73 4
46 47 2
46 74 4
47 48 5
47 75 5
48 49 5
48 76 4
49 50 1
49 77 3
50 51 1
50 78 4
51 52 1
51 79 2
52 53 3
52 80 5
53 54 2
53 81 1
54 55 2
54 82 4
55 56 5
55 83 2
56 84 1
57 58 3
57 85 3
58 59 4
58 86 2
59 60 4
59 87 4
60 61 5
60 88 5
61 62 4
61 89 2
62 63 2
62 90 3
63 64 2
63 91 5
64 65 2
64 92 1
65 66 5
65 93 3
66 67 4
66 94 5
67 68 2
67 95 3
68 69 3
68 96 3
69 70 2
69 97 3
70 71 5
70 98 5
71 72 4
71 99 2
72 73 2
72 100 2
73 74 2
73 101 5
74 75 4
74 102 5
75 76 2
75 103 3
76 77 5
76 104 3
77 78 5
77 105 3
78 79 5
78 106 3
79 80 5
79 107 3
80 81 5
80 108 5
81 82 5
81 109 3
82 83 2
82 110 4
83 84 2
83 111 1
84 112 5
85 86 5
85 113 2
86 87 3
86 114 5
87 88 1
87 115 4
88 89 4
88 116 3
89 90 5
89 117 3
90 91 2
90 118 3
91 92 3
91 119 1
92 93 5
92 120 5
93 94 5
93 121 5
94 95 2
94 122 1
95 96 5
95 123 2
96 97 2
96 124 5
97 98 2
97 125 4
98 99 1
98 126 4
99 100 1
99 127 1
100 101 2
100 128 2
101 102 1
101 129 3
102 103 1
102 130 4
103 104 5
103 131 5
104 105 4
104 132 4
105 106 5
105 133 1
106 107 2
106 134 1
107 108 2
107 135 3
108 109 3
108 136 3
109 110 3
109 137 4
110 111 5
110 138 1
111 112 1
111 139 4
112 140 3
113 114 5
113 141 1
114 115 3
114 142 4
115 116 1
115 143 3
116 117 5
116 144 2
117 118 1
117 145 4
118 119 4
118 146 2
119 120 2
119 147 1
120 121 3
120 148 1
121 122 5
121 149 2
122 123 2
122 150 3
123 124 4
123 151 3
124 125 2
124 152 3
125 126 1
125 153 3
126 127 4
126 154 1
127 128 2
127 155 4
128 129 1
128 156 4
129 130 1
129 157 3
130 131 3
130 158 3
131 132 5
131 159 2
132 133 5
132 160 2
133 134 5
133 161 2
134 135 2
134 162 4
135 136 4
135 163 1
136 137 3
136 164 1
137 138 4
137 165 1
138 139 3
138 166 1
139 140 5
139 167 4
140 168 2
141 142 2
141 169 2
142 143 4
142 170 1
143 144 2
143 171 1
144 145 4
144 172 4
145 146 5
145 173 1
146 147 1
146 174 1
147 148 1
147 175 3
148 149 1
148 176 1
149 150 5
149 177 4
150 151 3
150 178 4
151 152 3
151 179 4
152 153 5
152 180 2
153 154 1
153 181 5
154 155 4
154 182 5
155 156 3
155 183 1
156 157 1
156 184 3
157 158 2
157 185 5
158 159 5
158 186 5
159 160 4
159 187 4
160 161 3
160 188 3
161 162 3
161 189 1
162 163 3
162 190 3
163 164 3
163 191 4
164 165 1
164 192 2
165 166 3
165 193 2
166 167 4
166 194 4
167 168 3
167 195 1
168 196 3
169 170 4
169 197 3
170 171 1
170 198 1
171 172 1
171 199 1
172 173 3
172 200 1
173 174 2
173 201 4
174 175 5
174 202 3
175 176 3
175 203 2
176 177 1
176 204 3
177 178 1
177 205 2
178 179 5
178 206 2
179 180 5
179 207 4
180 181 5
180 208 5
181 182 1
181 209 1
182 183 2
182 210 5
183 184 1
183 211 5
184 185 2
184 212 3
185 186 1
185 213 2
186 187 3
186 214 2
187 188 2
187 215 3
188 189 3
188 216 5
189 190 1
189 217 4
190 191 2
190 218 4
191 192 2
191 219 5
192 193 1
192 220 4
193 194 3
193 221 2
194 195 2
194 222 2
195 196 3
195 223 2
196 224 1
197 198 4
197 225 1
198 199 1
198 226 4
199 200 2
199 227 4
200 201 5
200 228 4
201 202 1
201 229 5
202 203 1
202 230 4
203 204 4
203 231 2
204 205 3
204 232 1
205 206 5
205 233 1
206 207 3
206 234 2
207 208 3
207 235 4
208 209 3
208 236 4
209 210 2
209 237 5
210 211 1
210 238 5
211 212 2
211 239 1
212 213 1
212 240 4
213 214 2
213 241 4
214 215 5
214 242 5
215 216 2
215 243 4
216 217 5
216 244 4
217 218 2
217 245 4
218 219 2
218 246 3
219 220 5
219 247 5
220 221 4
220 248 4
221 222 3
221 249 3
222 223 1
222 250 5
223 224 2
223 251 1
224 252 5
225 226 5
225 253 4
226 227 2
226 254 2
227 228 2
227 255 2
228 229 5
228 256 4
229 230 1
229 257 3
230 231 3
230 258 4
231 232 4
231 259 3
232 233 2
232 260 4
233 234 5
233 261 4
234 235 2
234 262 2
235 236 2
235 263 4
236 237 3
236 264 1
237 238 1
237 265 3
238 239 4
238 266 4
239 240 3
239 267 3
240 241 4
240 268 3
241 242 3
241 269 4
242 243 3
242 270 5
243 244 2
243 271 1
244 245 5
244 272 1
245 246 3
245 273 3
246 247 3
246 274 2
247 248 5
247 275 3
248 249 1
248 276 2
249 250 1
249 277 1
250 251 1
250 278 3
251 252 4
251 279 2
252 280 3
253 254 3
253 281 4
254 255 1
254 282 1
255 256 1
255 283 3
256 257 4
256 284 4
257 258 1
257 285 4
258 259 1
258 286 2
259 260 1
259 287 4
260 261 3
260 288 2
261 262 1
261 289 5
262 263 2
262 290 4
263 264 5
263 291 5
264 265 2
264 292 3
265 266 2
265 293 2
266 267 5
266 294 2
267 268 5
267 295 1
268 269 5
268 296 3
269 270 5
269 297 3
270 271 3
270 298 3
271 272 5
271 299 1
272 273 2
272 300 5
273 274 3
273 301 3
274 275 2
274 302 3
275 276 4
275 303 2
276 277 4
276 304 5
277 278 1
277 305 5
278 279 5
278 306 5
279 280 2
279 307 3
280 308 5
281 282 1
281 309 3
282 283 3
282 310 3
283 284 2
283 311 5
284 285 2
284 312 3
285 286 1
285 313 5
286 287 3
286 314 2
287 288 3
287 315 2
288 289 3
288 316 4
289 290 1
289 317 2
290 291 4
290 318 3
291 292 5
291 319 1
292 293 3
292 320 2
293 294 4
293 321 4
294 295 4
294 322 3
295 296 5
295 323 1
296 297 1
296 324 4
297 298 5
297 325 5
298 299 3
298 326 5
299 300 2
299 327 3
300 301 2
300 328 5
301 302 3
301 329 4
302 303 1
302 330 2
303 304 1
303 331 4
304 305 4
304 332 3
305 306 5
305 333 2
306 307 1
306 334 5
307 308 2
307 335 3
308 336 4
309 310 1
309 337 3
310 311 3
310 338 1
311 312 1
311 339 1
312 313 5
312 340 1
313 314 4
313 341 1
314 315 5
314 342 1
315 316 4
315 343 4
316 317 3
316 344 1
317 318 5
317 345 1
318 319 3
318 346 1
319 320 1
319 347 2
320 321 1
320 348 1
321 322 2
321 349 5
322 323 5
322 350 4
323 324 3
323 351 5
324 325 5
324 352 2
325 326 1
325 353 2
326 327 5
326 354 4
327 328 3
327 355 4
328 329 2
328 356 4
329 330 2
329 357 3
330 331 4
330 358 4
331 332 4
331 359 3
332 333 2
332 360 3
333 334 1
333 361 3
334 335 2
334 362 5
335 336 5
335 363 2
336 364 5
337 338 2
337 365 3
338 339 5
338 366 5
339 340 5
339 367 5
340 341 5
340 368 3
341 342 1
341 369 2
342 343 3
342 370 3
343 344 2
343 371 1
344 345 1
344 372 4
345 346 2
345 373 5
346 347 3
346 374 2
347 348 2
347 375 1
348 349 5
348 376 1
349 350 4
349 377 5
350 351 4
350 378 1
351 352 3
351 379 4
352 353 5
352 380 1
353 354 5
353 381 4
354 355 1
354 382 2
355 356 5
355 383 3
356 357 2
356 384 4
357 358 3
357 385 3
358 359 4
358 386 3
359 360 1
359 387 5
360 361 1
360 388 2
361 362 3
361 389 1
362 363 3
362 390 2
363 364 1
363 391 5
364 392 5
365 366 1
365 393 5
366 367 4
366 394 5
367 368 1
367 395 3
368 369 1
368 396 2
369 370 1
369 397 2
370 371 3
370 398 5
371 372 5
371 399 3
372 373 5
372 400 3
373 374 1
373 401 5
374 375 4
374 402 1
375 376 2
375 403 5
376 377 4
376 404 3
377 378 5
377 405 5
378 379 2
378 406 3
379 380 3
379 407 1
380 381 4
380 408 5
381 382 2
381 409 5
382 383 5
382 410 4
383 384 1
383 411 5
384 385 3
384 412 4
385 386 1
385 413 3
386 387 1
386 414 1
387 388 4
387 415 3
388 389 4
388 416 4
389 390 3
389 417 4
390 391 5
390 418 4
391 392 3
391 419 4
392 420 2
393 394 3
393 421 1
394 395 4
394 422 2
395 396 1
395 423 4
396 397 4
396 424 2
397 398 3
397 425 1
398 399 2
398 426 4
399 400 1
399 427 4
400 401 2
400 428 1
401 402 3
401 429 4
402 403 4
402 430 1
403 404 5
403 431 1
404 405 1
404 432 1
405 406 4
405 433 4
406 407 1
406 434 3
407 408 3
407 435 5
408 409 3
408 436 5
409 410 4
409 437 2
410 411 4
410 438 5
411 412 3
411 439 1
412 413 2
412 440 3
413 414 5
413 441 5
414 415 4
414 442 1
415 416 4
415 443 5
416 417 2
416 444 5
417 418 1
417 445 4
418 419 2
418 446 1
419 420 2
419 447 4
420 448 5
421 422 2
421 449 1
422 423 5
422 450 1
423 424 5
423 451 5
424 425 4
424 452 3
425 426 2
425 453 5
426 427 1
426 454 2
427 428 5
427 455 5
428 429 1
428 456 2
429 430 5
429 457 3
430 431 1
430 458 3
431 432 2
431 459 3
432 433 3
432 460 3
433 434 2
433 461 5
434 435 3
434 462 3
435 436 1
435 463 5
436 437 2
436 464 5
437 438 3
437 465 1
438 439 5
438 466 2
439 440 1
439 467 2
440 441 4
440 468 4
441 442 3
441 469 5
442 443 1
442 470 1
443 444 2
443 471 2
444 445 2
444 472 5
445 446 1
445 473 2
446 447 1
446 474 4
447 448 1
447 475 4
448 476 5
449 450 2
449 477 5
450 451 1
450 478 4
451 452 1
451 479 1
452 453 4
452 480 2
453 454 1
453 481 2
454 455 2
454 482 3
455 456 3
455 483 5
456 457 4
456 484 3
457 458 3
457 485 2
458 459 4
458 486 1
459 460 1
459 487 5
460 461 2
460 488 5
461 462 4
461 489 3
462 463 1
462 490 4
463 464 2
463 491 2
464 465 4
464 492 2
465 466 4
465 493 3
466 467 5
466 494 4
467 468 3
467 495 4
468 469 2
468 496 4
469 470 3
469 497 2
470 471 2
470 498 3
471 472 3
471 499 5
472 473 5
472 500 5
473 474 4
473 501 2
474 475 3
474 502 2
475 476 1
475 503 3
476 504 1
477 478 2
477 505 1
478 479 4
478 506 2
479 480 3
479 507 1
480 481 5
480 508 2
481 482 3
481 509 3
482 483 1
482 510 5
483 484 4
483 511 3
484 485 1
484 512 5
485 486 3
485 513 2
486 487 4
486 514 1
487 488 1
487 515 1
488 489 3
488 516 2
489 490 3
489 517 3
490 491 4
490 518 4
491 492 1
491 519 5
492 493 3
492 520 4
493 494 5
493 521 1
494 495 1
494 522 2
495 496 1
495 523 3
496 497 4
496 524 3
497 498 5
497 525 1
498 499 2
498 526 3
499 500 3
499 527 4
500 501 5
500 528 3
501 502 1
501 529 3
502 503 4
502 530 3
503 504 1
503 531 1
504 532 4
505 506 5
505 533 5
506 507 2
506 534 2
507 508 4
507 535 2
508 509 3
508 536 1
509 510 5
509 537 4
510 511 1
510 538 2
511 512 5
511 539 2
512 513 1
512 540 4
513 514 5
513 541 3
514 515 4
514 542 5
515 516 1
515 543 3
516 517 1
516 544 5
517 518 4
517 545 2
518 519 2
518 546 4
519 520 3
519 547 2
520 521 5
520 548 5
521 522 3
521 549 1
522 523 2
522 550 3
523 524 5
523 551 2
524 525 5
524 552 4
525 526 1
525 553 5
526 527 4
526 554 1
527 528 4
527 555 1
528 529 2
528 556 5
529 530 1
529 557 4
530 531 4
530 558 1
531 532 4
531 559 5
532 560 1
533 534 4
533 561 2
534 535 1
534 562 5
535 536 4
535 563 2
536 537 4
536 564 4
537 538 5
537 565 3
538 539 5
538 566 5
539 540 1
539 567 3
540 541 1
540 568 1
541 542 5
541 569 1
542 543 4
542 570 5
543 544 4
543 571 3
544 545 1
544 572 3
545 546 5
545 573 1
546 547 5
546 574 2
547 548 3
547 575 2
548 549 2
548 576 3
549 550 3
549 577 2
550 551 4
550 578 3
551 552 4
551 579 3
552 553 2
552 580 5
553 554 3
553 581 2
554 555 1
554 582 4
555 556 4
555 583 1
556 557 5
556 584 4
557 558 1
557 585 1
558 559 1
558 586 1
559 560 5
559 587 3
560 588 4
561 562 1
561 589 5
562 563 3
562 590 2
563 564 2
563 591 4
564 565 5
564 592 1
565 566 1
565 593 4
566 567 3
566 594 2
567 568 2
567 595 1
568 569 2
568 596 3
569 570 1
569 597 4
570 571 5
570 598 1
571 572 2
571 599 2
572 573 3
572 600 2
573 574 5
573 601 2
574 575 2
574 602 1
575 576 4
575 603 1
576 577 5
576 604 2
577 578 2
577 605 4
578 579 5
578 606 3
579 580 3
579 607 3
580 581 3
580 608 2
581 582 5
581 609 2
582 583 2
582 610 2
583 584 2
583 611 5
584 585 3
584 612 1
585 586 3
585 613 2
586 587 3
586 614 3
587 588 3
587 615 1
588 616 3
589 590 2
589 617 2
590 591 4
590 618 5
591 592 2
591 619 5
592 593 1
592 620 4
593 594 3
593 621 3
594 595 2
594 622 3
595 596 1
595 623 2
596 597 2
596 624 2
597 598 2
597 625 2
598 599 4
598 626 4
599 600 5
599 627 4
600 601 5
600 628 3
601 602 1
601 629 1
602 603 3
602 630 1
603 604 3
603 631 1
604 605 4
604 632 3
605 606 2
605 633 2
606 607 1
606 634 2
607 608 1
607 635 4
608 609 2
608 636 4
609 610 5
609 637 5
610 611 4
610 638 2
611 612 5
611 639 5
612 613 1
612 640 1
613 614 5
613 641 3
614 615 5
614 642 5
615 616 1
615 643 4
616 644 2
617 618 4
617 645 5
618 619 1
618 646 2
619 620 3
619 647 3
620 621 2
620 648 2
621 622 5
621 649 2
622 623 3
622 650 2
623 624 5
623 651 2
624 625 2
624 652 4
625 626 5
625 653 5
626 627 5
626 654 4
627 628 5
627 655 3
628 629 1
628 656 3
629 630 1
629 657 4
630 631 5
630 658 5
631 632 3
631 659 3
632 633 5
632 660 5
633 634 1
633 661 3
634 635 2
634 662 1
635 636 1
635 663 2
636 637 2
636 664 3
637 638 4
637 665 4
638 639 2
638 666 4
639 640 2
639 667 1
640 641 3
640 668 3
641 642 1
641 669 1
642 643 5
642 670 3
643 644 1
643 671 1
644 672 1
645 646 5
645 673 1
646 647 4
646 674 4
647 648 5
647 675 2
648 649 3
648 676 5
649 650 4
649 677 1
650 651 1
650 678 3
651 652 4
651 679 2
652 653 4
652 680 3
653 654 1
653 681 4
654 655 5
654 682 1
655 656 4
655 683 5
656 657 5
656 684 2
657 658 2
657 685 4
658 659 1
658 686 3
659 660 4
659 687 3
660 661 1
660 688 2
661 662 4
661 689 3
662 663 3
662 690 5
663 664 4
663 691 4
664 665 3
664 692 5
665 666 4
665 693 5
666 667 3
666 694 1
667 668 4
667 695 3
668 669 2
668 696 1
669 670 1
669 697 1
670 671 3
670 698 5
671 672 3
671 699 2
672 700 3
673 674 3
673 701 4
674 675 1
674 702 1
675 676 3
675 703 1
676 677 1
676 704 4
677 678 4
677 705 2
678 679 1
678 706 3
679 680 3
679 707 2
680 681 2
680 708 2
681 682 3
681 709 5
682 683 5
682 710 3
683 684 3
683 711 1
684 685 4
684 712 3
685 686 3
685 713 1
686 687 3
686 714 2
687 688 1
687 715 1
688 689 2
688 716 3
689 690 4
689 717 2
690 691 4
690 718 1
691 692 3
691 719 5
692 693 2
692 720 1
693 694 2
693 721 5
694 695 5
694 722 5
695 696 4
695 723 1
696 697 4
696 724 1
697 698 2
697 725 2
698 699 5
698 726 5
699 700 1
699 727 2
700 728 5
701 702 4
701 729 2
702 703 3
702 730 2
703 704 1
703 731 5
704 705 5
704 732 3
705 706 1
705 733 5
706 707 2
706 734 2
707 708 4
707 735 4
708 709 5
708 736 3
709 710 2
709 737 5
710 711 1
710 738 4
711 712 4
711 739 4
712 713 4
712 740 4
713 714 2
713 741 1
714 715 1
714 742 3
715 716 5
715 743 1
716 717 2
716 744 3
717 718 2
717 745 5
718 719 5
718 746 1
719 720 1
719 747 2
720 721 1
720 748 2
721 722 4
721 749 2
722 723 5
722 750 2
723 724 1
723 751 2
724 725 4
724 752 2
725 726 5
725 753 1
726 727 2
726 754 3
727 728 5
727 755 1
728 756 5
729 730 3
729 757 5
730 731 2
730 758 3
731 732 5
731 759 3
732 733 1
732 760 4
733 734 1
733 761 5
734 735 2
734 762 3
735 736 5
735 763 2
736 737 3
736 764 3
737 738 2
737 765 3
738 739 2
738 766 4
739 740 3
739 767 3
740 741 5
740 768 3
741 742 3
741 769 5
742 743 4
742 770 1
743 744 4
743 771 1
744 745 4
744 772 1
745 746 4
745 773 2
746 747 3
746 774 5
747 748 1
747 775 2
748 749 2
748 776 3
749 750 2
749 777 1
750 751 4
750 778 1
751 752 1
751 779 2
752 753 5
752 780 1
753 754 4
753 781 5
754 755 3
754 782 4
755 756 5
755 783 1
756 784 2
757 758 2
758 759 1
759 760 4
760 761 4
761 762 3
762 763 5
763 764 3
764 765 1
765 766 1
766 767 4
767 768 5
768 769 2
769 770 3
770 771 4
771 772 1
772 773 2
773 774 2
774 775 2
775 776 4
776 777 1
777 778 4
778 779 1
779 780 5
780 781 2
781 782 1
782 783 1
783 784 1
1 757 1
2 758 4
3 759 2
4 760 4
5 761 3
6 762 1
7 763 5
8 764 4
9 765 3
10 766 5
11 767 5
12 768 5
13 769 5
14 770 4
15 771 2
16 772 5
17 773 4
18 774 2
19 775 3
20 776 1
21 777 1
22 778 5
23 779 1
24 780 1
25 781 5
26 782 4
27 783 4
28 784 2
1 28 5
29 56 3
57 84 3
85 112 4
113 140 4
141 168 3
169 196 1
197 224 2
225 252 3
253 280 4
281 308 2
309 336 2
337 364 5
365 392 2
393 420 3
421 448 2
449 476 3
477 504 2
505 532 3
533 560 4
561 588 2
589 616 4
617 644 4
645 672 1
673 700 3
701 728 4
729 756 5
757 784 3
